w = 36;
n = 23;
measures = [|3, 3,
|3, 4,
|3, 5,
|3, 6,
|3, 7,
|3, 8,
|3, 9,
|3, 10,
|3, 11,
|3, 12,
|3, 14,
|3, 15,
|3, 16,
|3, 24,
|3, 36,
|4, 3,
|4, 11,
|4, 22,
|5, 3,
|5, 4,
|5, 14,
|5, 15,
|12, 36,
|];
initial_x = [0, 3, 6, 9, 12, 15, 18, 21, 24, 27, 30, 33, 0, 3, 6, 9, 13, 17, 21, 26, 31, 0, 5];
initial_y = [0, 0, 0, 0, 0, 0, 0, 0, 0, 0, 0, 0, 15, 15, 15, 15, 15, 15, 15, 15, 15, 51, 51];